unknown
(model
; cardinality of BoundSet is 3
(declare-sort BoundSet 0)
; rep: @uc_BoundSet_0
; rep: @uc_BoundSet_1
; rep: @uc_BoundSet_2
; cardinality of UnboundSet is 1
(declare-sort UnboundSet 0)
(declare-fun groundTerm_4 () UnboundSet)
(define-fun IsYoungMenGroup ((BOUND_VARIABLE_412 BoundSet)) Bool true)
(define-fun IsInGym ((BOUND_VARIABLE_419 BoundSet) (BOUND_VARIABLE_420 BoundSet)) Bool true)
(define-fun TakesTurnsScoring ((BOUND_VARIABLE_419 BoundSet) (BOUND_VARIABLE_420 BoundSet)) Bool true)
(define-fun IsYoungMen ((BOUND_VARIABLE_412 BoundSet)) Bool false)
(define-fun IsIndoors ((BOUND_VARIABLE_412 BoundSet)) Bool false)
)
sat
(model
; cardinality of BoundSet is 1
(declare-sort BoundSet 0)
; rep: @uc_BoundSet_0
; cardinality of UnboundSet is 1
(declare-sort UnboundSet 0)
(declare-fun groundTerm_6 () UnboundSet)
(define-fun IsYoungMenGroup ((BOUND_VARIABLE_462 BoundSet)) Bool true)
(define-fun IsInGym ((BOUND_VARIABLE_469 BoundSet) (BOUND_VARIABLE_470 BoundSet)) Bool true)
(define-fun TakesTurnsScoring ((BOUND_VARIABLE_469 BoundSet) (BOUND_VARIABLE_470 BoundSet)) Bool true)
(define-fun IsYoungMen ((BOUND_VARIABLE_462 BoundSet)) Bool false)
(define-fun IsIndoors ((BOUND_VARIABLE_462 BoundSet)) Bool true)
)
